c uprop, v00.0, 
c reading from data/prog421.c.cnf
c done reading: 0.00357
p cnf 182 870
-86 -106 0
-86 -103 0
86 103 106 0
-81 103 106 0
-81 -103 -106 0
81 103 -106 0
81 -103 106 0
86 -98 0
-96 -98 0
-86 96 98 0
-86 -91 96 0
86 -91 -96 0
86 91 96 0
-86 91 -96 0
-87 98 0
-85 -87 0
85 87 -98 0
-83 85 -98 0
-83 -85 98 0
83 85 98 0
83 -85 -98 0
-82 87 0
-79 -82 0
79 82 -87 0
79 -87 -104 0
-79 87 -104 0
79 87 104 0
-79 -87 104 0
82 -108 0
-100 -108 0
-82 100 108 0
-82 100 -109 0
82 -100 -109 0
82 100 109 0
-82 -100 109 0
108 -110 0
-93 -110 0
93 -108 110 0
93 -108 -111 0
-93 108 -111 0
93 108 111 0
-93 -108 111 0
110 -112 0
-89 -112 0
89 -110 112 0
89 -110 -113 0
-89 110 -113 0
89 110 113 0
-89 -110 113 0
103 -114 0
106 -114 0
-103 -106 114 0
-103 -106 -115 0
103 106 -115 0
-103 106 115 0
103 -106 115 0
-96 -103 116 0
-96 -114 116 0
-103 -114 116 0
96 103 -116 0
96 114 -116 0
103 114 -116 0
96 -116 -117 0
103 -116 -117 0
114 -116 -117 0
-96 116 117 0
-103 116 117 0
-114 116 117 0
-96 -103 -114 117 0
96 103 114 -117 0
-85 -96 118 0
-85 -116 118 0
-96 -116 118 0
85 96 -118 0
85 116 -118 0
96 116 -118 0
85 -118 -119 0
96 -118 -119 0
116 -118 -119 0
-85 118 119 0
-96 118 119 0
-116 118 119 0
-85 -96 -116 119 0
85 96 116 -119 0
-79 -85 120 0
-79 -118 120 0
-85 -118 120 0
79 85 -120 0
79 118 -120 0
85 118 -120 0
-77 79 -120 0
-77 85 -120 0
-77 118 -120 0
77 -79 120 0
77 -85 120 0
77 -118 120 0
77 -79 -85 -118 0
-77 79 85 118 0
76 -79 -100 0
76 -100 -120 0
76 -79 -120 0
-76 79 100 0
-76 100 120 0
-76 79 120 0
-75 -76 100 0
-75 -76 79 0
-75 -76 120 0
75 76 -100 0
75 76 -79 0
75 76 -120 0
75 -79 -100 -120 0
-75 79 100 120 0
74 -93 -100 0
74 -76 -93 0
74 -76 -100 0
-74 93 100 0
-74 76 93 0
-74 76 100 0
-73 -74 93 0
-73 -74 100 0
-73 -74 76 0
73 74 -93 0
73 74 -100 0
73 74 -76 0
73 -76 -93 -100 0
-73 76 93 100 0
72 -89 -93 0
72 -74 -89 0
72 -74 -93 0
-72 89 93 0
-72 74 89 0
-72 74 93 0
-72 89 -105 0
-72 93 -105 0
-72 74 -105 0
72 -89 105 0
72 -93 105 0
72 -74 105 0
-74 -89 -93 105 0
74 89 93 -105 0
89 -102 0
72 -102 0
-72 -89 102 0
-72 -89 -95 0
72 89 -95 0
72 -89 95 0
-72 89 95 0
-84 117 0
-84 106 0
84 -106 -117 0
-78 -106 -117 0
-78 106 117 0
78 106 -117 0
78 -106 117 0
99 -103 -119 0
-84 99 -119 0
-84 99 -103 0
-99 103 119 0
84 -99 119 0
84 -99 103 0
-92 -99 119 0
-92 -99 103 0
84 -92 -99 0
92 99 -119 0
92 99 -103 0
-84 92 99 0
-84 92 -103 -119 0
84 -92 103 119 0
-77 88 -96 0
-77 88 -99 0
88 -96 -99 0
77 -88 96 0
77 -88 99 0
-88 96 99 0
-71 77 -88 0
-71 -88 96 0
-71 -88 99 0
71 -77 88 0
71 88 -96 0
71 88 -99 0
71 -77 -96 -99 0
-71 77 96 99 0
70 -75 -85 0
70 -75 -88 0
70 -85 -88 0
-70 75 85 0
-70 75 88 0
-70 85 88 0
-69 -70 75 0
-69 -70 85 0
-69 -70 88 0
69 70 -75 0
69 70 -85 0
69 70 -88 0
69 -75 -85 -88 0
-69 75 85 88 0
68 -73 -79 0
68 -70 -73 0
68 -70 -79 0
-68 73 79 0
-68 70 73 0
-68 70 79 0
-67 -68 73 0
-67 -68 79 0
-67 -68 70 0
67 68 -73 0
67 68 -79 0
67 68 -70 0
67 -70 -73 -79 0
-67 70 73 79 0
66 -100 -105 0
66 -68 -105 0
66 -68 -100 0
-66 100 105 0
-66 68 105 0
-66 68 100 0
-65 -66 105 0
-65 -66 100 0
-65 -66 68 0
65 66 -105 0
65 66 -100 0
65 66 -68 0
65 -68 -100 -105 0
-65 68 100 105 0
64 -93 -95 0
64 -66 -95 0
64 -66 -93 0
-64 93 95 0
-64 66 95 0
-64 66 93 0
-63 -64 95 0
-63 -64 93 0
-63 -64 66 0
63 64 -95 0
63 64 -93 0
63 64 -66 0
63 -66 -93 -95 0
-63 66 93 95 0
62 -89 -102 0
62 -64 -102 0
62 -64 -89 0
-62 89 102 0
-62 64 102 0
-62 64 89 0
-61 -62 102 0
-61 -62 89 0
-61 -62 64 0
61 62 -102 0
61 62 -89 0
61 62 -64 0
61 -64 -89 -102 0
-61 64 89 102 0
-60 -106 0
-60 -115 0
60 106 115 0
-59 106 115 0
-59 -106 -115 0
59 -106 115 0
59 106 -115 0
-58 60 0
-58 -78 0
58 -60 78 0
-57 -60 78 0
-57 60 -78 0
57 60 78 0
57 -60 -78 0
-56 58 0
-56 -92 0
56 -58 92 0
-58 92 -121 0
58 -92 -121 0
58 92 121 0
-58 -92 121 0
56 -122 0
-71 -122 0
-56 71 122 0
-56 71 -123 0
56 -71 -123 0
56 71 123 0
-56 -71 123 0
122 -124 0
-69 -124 0
69 -122 124 0
69 -122 -125 0
-69 122 -125 0
69 122 125 0
-69 -122 125 0
124 -126 0
-67 -126 0
67 -124 126 0
67 -124 -127 0
-67 124 -127 0
67 124 127 0
-67 -124 127 0
126 -128 0
-65 -128 0
65 -126 128 0
65 -126 -129 0
-65 126 -129 0
65 126 129 0
-65 -126 129 0
128 -130 0
-63 -130 0
63 -128 130 0
63 -128 -131 0
-63 128 -131 0
63 128 131 0
-63 -128 131 0
130 -132 0
-61 -132 0
61 -130 132 0
61 -130 -133 0
-61 130 -133 0
61 130 133 0
-61 -130 133 0
132 -134 0
-62 -134 0
62 -132 134 0
62 -132 -135 0
-62 132 -135 0
62 132 135 0
-62 -132 135 0
-136 -138 0
136 138 0
136 -139 0
-136 139 0
138 -140 0
-140 -141 0
-138 140 141 0
-138 141 -143 0
138 -141 -143 0
138 141 143 0
-138 -141 143 0
140 -144 0
-144 -145 0
-140 144 145 0
-140 145 -147 0
140 -145 -147 0
140 145 147 0
-140 -145 147 0
144 -148 0
-148 -149 0
-144 148 149 0
-144 149 -151 0
144 -149 -151 0
144 149 151 0
-144 -149 151 0
148 -152 0
-152 -153 0
-148 152 153 0
-148 153 -155 0
148 -153 -155 0
148 153 155 0
-148 -153 155 0
152 -156 0
-156 -157 0
-152 156 157 0
-152 157 -159 0
152 -157 -159 0
152 157 159 0
-152 -157 159 0
-136 160 0
136 -160 0
-136 -141 161 0
136 141 -161 0
141 -161 0
136 -161 0
141 -161 -162 0
136 -161 -162 0
-161 -162 0
-141 161 162 0
-136 161 162 0
136 141 -162 0
-141 -145 163 0
-145 -161 163 0
-141 -161 163 0
141 145 -163 0
145 161 -163 0
141 161 -163 0
145 -163 -164 0
141 -163 -164 0
161 -163 -164 0
-145 163 164 0
-141 163 164 0
-161 163 164 0
-141 -145 -161 164 0
141 145 161 -164 0
-145 -149 165 0
-149 -163 165 0
-145 -163 165 0
145 149 -165 0
149 163 -165 0
145 163 -165 0
149 -165 -166 0
145 -165 -166 0
163 -165 -166 0
-149 165 166 0
-145 165 166 0
-163 165 166 0
-145 -149 -163 166 0
145 149 163 -166 0
-149 -153 167 0
-153 -165 167 0
-149 -165 167 0
149 153 -167 0
153 165 -167 0
149 165 -167 0
153 -167 -168 0
149 -167 -168 0
165 -167 -168 0
-153 167 168 0
-149 167 168 0
-165 167 168 0
-149 -153 -165 168 0
149 153 165 -168 0
-153 -157 169 0
-157 -167 169 0
-153 -167 169 0
153 157 -169 0
157 167 -169 0
153 167 -169 0
157 -169 -170 0
153 -169 -170 0
167 -169 -170 0
-157 169 170 0
-153 169 170 0
-167 169 170 0
-153 -157 -167 170 0
153 157 167 -170 0
157 -171 0
169 -171 0
-157 -169 171 0
-107 -157 -169 0
-107 157 169 0
107 -157 169 0
107 157 -169 0
-97 162 0
97 -162 0
80 -164 0
-80 164 0
101 -136 -166 0
-101 136 166 0
-101 166 0
-101 136 0
-94 -101 166 0
-94 -101 136 0
-94 -101 0
94 101 -166 0
94 101 -136 0
-94 136 166 0
90 -141 -168 0
90 -101 -168 0
90 -101 -141 0
-90 141 168 0
-90 101 168 0
-90 101 141 0
-90 168 -172 0
-90 141 -172 0
-90 101 -172 0
90 -168 172 0
90 -141 172 0
90 -101 172 0
-101 -141 -168 172 0
101 141 168 -172 0
-145 -170 173 0
-90 -170 173 0
-90 -145 173 0
145 170 -173 0
90 170 -173 0
90 145 -173 0
-137 170 -173 0
-137 145 -173 0
90 -137 -173 0
137 -170 173 0
137 -145 173 0
-90 137 173 0
-90 137 -145 -170 0
90 -137 145 170 0
-107 142 -149 0
-107 142 -173 0
142 -149 -173 0
107 -142 149 0
107 -142 173 0
-142 149 173 0
107 -142 -146 0
-142 -146 149 0
-142 -146 173 0
-107 142 146 0
142 146 -149 0
142 146 -173 0
-107 146 -149 -173 0
107 -146 149 173 0
150 -153 -171 0
-142 150 -171 0
-142 150 -153 0
-150 153 171 0
142 -150 171 0
142 -150 153 0
-150 -154 171 0
-150 153 -154 0
142 -150 -154 0
150 154 -171 0
150 -153 154 0
-142 150 154 0
-142 -153 154 -171 0
142 153 -154 171 0
157 -158 0
150 -158 0
-150 -157 158 0
-150 -157 -174 0
150 157 -174 0
150 -157 174 0
-150 157 174 0
80 -175 0
-80 175 0
-94 176 0
94 -176 0
-136 -172 177 0
136 172 -177 0
172 -177 0
136 -177 0
172 -177 -178 0
136 -177 -178 0
-177 -178 0
-172 177 178 0
-136 177 178 0
136 172 -178 0
-137 -141 179 0
-137 -177 179 0
-141 -177 179 0
137 141 -179 0
137 177 -179 0
141 177 -179 0
137 -179 -180 0
141 -179 -180 0
177 -179 -180 0
-137 179 180 0
-141 179 180 0
-177 179 180 0
-137 -141 -177 180 0
137 141 177 -180 0
-145 -146 181 0
-146 -179 181 0
-145 -179 181 0
145 146 -181 0
146 179 -181 0
145 179 -181 0
146 -181 -182 0
145 -181 -182 0
179 -181 -182 0
-146 181 182 0
-145 181 182 0
-179 181 182 0
-145 -146 -179 182 0
145 146 179 -182 0
55 -149 -154 0
55 -154 -181 0
55 -149 -181 0
-55 149 154 0
-55 154 181 0
-55 149 181 0
-54 -55 154 0
-54 -55 149 0
-54 -55 181 0
54 55 -154 0
54 55 -149 0
54 55 -181 0
54 -149 -154 -181 0
-54 149 154 181 0
53 -153 -174 0
53 -55 -174 0
53 -55 -153 0
-53 153 174 0
-53 55 174 0
-53 55 153 0
-52 -53 174 0
-52 -53 153 0
-52 -53 55 0
52 53 -174 0
52 53 -153 0
52 53 -55 0
52 -55 -153 -174 0
-52 55 153 174 0
51 -157 -158 0
51 -53 -158 0
51 -53 -157 0
-51 157 158 0
-51 53 158 0
-51 53 157 0
-50 -51 158 0
-50 -51 157 0
-50 -51 53 0
50 51 -158 0
50 51 -157 0
50 51 -53 0
50 -53 -157 -158 0
-50 53 157 158 0
-49 176 0
49 -176 0
48 -178 0
-48 178 0
47 -136 -180 0
-47 136 180 0
-47 180 0
-47 136 0
-46 -47 180 0
-46 -47 136 0
-46 -47 0
46 47 -180 0
46 47 -136 0
-46 136 180 0
45 -141 -182 0
45 -47 -182 0
45 -47 -141 0
-45 141 182 0
-45 47 182 0
-45 47 141 0
-44 -45 182 0
-44 -45 141 0
-44 -45 47 0
44 45 -182 0
44 45 -141 0
44 45 -47 0
44 -47 -141 -182 0
-44 47 141 182 0
43 -54 -145 0
43 -45 -54 0
43 -45 -145 0
-43 54 145 0
-43 45 54 0
-43 45 145 0
-42 -43 54 0
-42 -43 145 0
-42 -43 45 0
42 43 -54 0
42 43 -145 0
42 43 -45 0
42 -45 -54 -145 0
-42 45 54 145 0
41 -52 -149 0
41 -43 -52 0
41 -43 -149 0
-41 52 149 0
-41 43 52 0
-41 43 149 0
-40 -41 52 0
-40 -41 149 0
-40 -41 43 0
40 41 -52 0
40 41 -149 0
40 41 -43 0
40 -43 -52 -149 0
-40 43 52 149 0
39 -50 -153 0
39 -41 -50 0
39 -41 -153 0
-39 50 153 0
-39 41 50 0
-39 41 153 0
-38 -39 50 0
-38 -39 153 0
-38 -39 41 0
38 39 -50 0
38 39 -153 0
38 39 -41 0
38 -41 -50 -153 0
-38 41 50 153 0
37 -51 -157 0
37 -39 -51 0
37 -39 -157 0
-37 51 157 0
-37 39 51 0
-37 39 157 0
-36 -37 51 0
-36 -37 157 0
-36 -37 39 0
36 37 -51 0
36 37 -157 0
36 37 -39 0
36 -39 -51 -157 0
-36 39 51 157 0
-35 -160 0
35 160 0
-34 160 0
34 -160 0
-33 35 0
-33 -97 0
33 -35 97 0
-32 -35 97 0
-32 35 -97 0
32 35 97 0
32 -35 -97 0
-31 33 0
-31 -175 0
31 -33 175 0
-30 -33 175 0
-30 33 -175 0
30 33 175 0
30 -33 -175 0
-29 31 0
-29 -49 0
29 -31 49 0
-28 -31 49 0
-28 31 -49 0
28 31 49 0
28 -31 -49 0
-27 29 0
-27 -48 0
27 -29 48 0
-26 -29 48 0
-26 29 -48 0
26 29 48 0
26 -29 -48 0
-25 27 0
-25 -46 0
25 -27 46 0
-24 -27 46 0
-24 27 -46 0
24 27 46 0
24 -27 -46 0
-23 25 0
-23 -44 0
23 -25 44 0
-22 -25 44 0
-22 25 -44 0
22 25 44 0
22 -25 -44 0
-21 23 0
-21 -42 0
21 -23 42 0
-20 -23 42 0
-20 23 -42 0
20 23 42 0
20 -23 -42 0
-19 21 0
-19 -40 0
19 -21 40 0
-18 -21 40 0
-18 21 -40 0
18 21 40 0
18 -21 -40 0
-17 19 0
-17 -38 0
17 -19 38 0
-16 -19 38 0
-16 19 -38 0
16 19 38 0
16 -19 -38 0
-15 17 0
-15 -36 0
15 -17 36 0
-14 -17 36 0
-14 17 -36 0
14 17 36 0
14 -17 -36 0
-13 15 0
-13 -37 0
13 -15 37 0
-12 -15 37 0
-12 15 -37 0
12 15 37 0
12 -15 -37 0
-11 106 0
-11 160 0
11 -106 -160 0
-106 -160 0
106 160 0
10 -97 -115 0
10 -11 -115 0
10 -11 -97 0
-10 97 115 0
-10 11 115 0
-10 11 97 0
10 -115 0
10 -97 0
10 -11 0
-11 -97 -115 0
9 -78 -175 0
9 -10 -78 0
9 -10 -175 0
-9 78 175 0
-9 10 78 0
-9 10 175 0
9 -78 0
9 -175 0
9 -10 0
-10 -78 -175 0
8 -49 -92 0
8 -9 -92 0
8 -9 -49 0
-8 49 92 0
-8 9 92 0
-8 9 49 0
8 -92 0
8 -49 0
8 -9 0
-9 -49 -92 0
7 -48 -71 0
7 -8 -71 0
7 -8 -48 0
-7 48 71 0
-7 8 71 0
-7 8 48 0
7 -71 0
7 -48 0
7 -8 0
-8 -48 -71 0
6 -46 -69 0
6 -7 -69 0
6 -7 -46 0
-6 46 69 0
-6 7 69 0
-6 7 46 0
6 -69 0
6 -46 0
6 -7 0
-7 -46 -69 0
5 -44 -67 0
5 -6 -67 0
5 -6 -44 0
-5 44 67 0
-5 6 67 0
-5 6 44 0
5 -67 0
5 -44 0
5 -6 0
-6 -44 -67 0
4 -42 -65 0
4 -5 -65 0
4 -5 -42 0
-4 42 65 0
-4 5 65 0
-4 5 42 0
4 -65 0
4 -42 0
4 -5 0
-5 -42 -65 0
3 -40 -63 0
3 -4 -63 0
3 -4 -40 0
-3 40 63 0
-3 4 63 0
-3 4 40 0
3 -63 0
3 -40 0
3 -4 0
-4 -40 -63 0
2 -38 -61 0
2 -3 -61 0
2 -3 -38 0
-2 38 61 0
-2 3 61 0
-2 3 38 0
2 -61 0
2 -38 0
2 -3 0
-3 -38 -61 0
1 -36 -62 0
1 -2 -62 0
1 -2 -36 0
-1 36 62 0
-1 2 62 0
-1 2 36 0
1 -62 0
1 -36 0
1 -2 0
-2 -36 -62 0
-1 -37 0
1 -37 0
-1 37 0
